\ LP format - for model browsing. Use MPS format to capture full model detail.
Minimize
  0 B15(0) + 0 B17(0) + 0 B20(0) + 0 B25(0) + 0 B27(0) + 0 B33(0) + 0 B35(0)
   + 0 B36(0) + 0 B39(0) + 0 B40(0) + 0 B42(0) + 0 B43(0) + 0 B44(0)
   + 0 B45(0) + 0 B46(0) + 0 B47(0) + 0 B50(0) + 0 B51(0) + 0 B52(0)
   + 0 B53(0) + 0 B54(0) + 0 B55(0) + 0 B60(0) + 0 B61(0) + 0 B62(0)
   + 0 B63(0) + 0 B65(0) + 0 B66(0) + 0 B67(0) + 0 B69(0) + 0 B70(0)
   + 0 B71(0) + 0 B72(0) + 0 B73(0) + 0 B74(0) + 0 B75(0) + 0 B78(0)
   + 0 B79(0) + 0 B80(0) + 0 B81(0) + 0 B82(0) + 0 B83(0) + 0 B85(0)
   + 0 B87(0) + 0 B88(0) + 0 B89(0) + 0 B90(0) + 0 B91(0) + 0 B92(0)
   + 0 B95(0) + I111(1)
Subject To
 c0: B0(15) + B1(9) = 1
 c1: B2(13) + B3(15) = 1
 c2: B4(14) = 1
 c3: B5(9) = 1
 c4: B6(13) + B7(13) = 1
 c5: B8(14) = 1
 c6: B9(17) + B10(11) = 1
 c7: B11(17) + B12(11) = 1
 c8: B13(12) + B14(18) = 1
 c9: - 1e+06 B0(15) + C96(16) <= 0
 c10: - 1e+06 B1(9) + C97(10) <= 0
 c11: - 1e+06 B2(13) + C98(14) <= 0
 c12: - 1e+06 B3(15) + C99(16) <= 0
 c13: - 1e+06 B4(14) + C100(14) <= 0
 c14: - 1e+06 B5(9) + C101(10) <= 0
 c15: - 1e+06 B6(13) + C102(14) <= 0
 c16: - 1e+06 B7(13) + C103(14) <= 0
 c17: - 1e+06 B8(14) + C104(14) <= 0
 c18: - 1e+06 B9(17) + C105(18) <= 0
 c19: - 1e+06 B10(11) + C106(12) <= 0
 c20: - 1e+06 B11(17) + C107(18) <= 0
 c21: - 1e+06 B12(11) + C108(12) <= 0
 c22: - 1e+06 B13(12) + C109(12) <= 0
 c23: - 1e+06 B14(18) + C110(18) <= 0
 c24: - 1e+06 B0(15) - 1e+06 B3(15) - 1e+06 B16(2) + C96(16) - C99(16)
   >= -2.999764e+06
 c25: - 1e+06 B0(15) - 1e+06 B3(15) + 1e+06 B16(2) - C96(16) + C99(16)
   >= -1.999518e+06
 c26: - 1e+06 B1(9) - 1e+06 B5(9) - 1e+06 B18(2) + C97(10) - C101(10)
   >= -2.999828e+06
 c27: - 1e+06 B1(9) - 1e+06 B5(9) + 1e+06 B18(2) - C97(10) + C101(10)
   >= -1.999814e+06
 c28: - 1e+06 B0(15) - 1e+06 B7(13) - 1e+06 B19(2) + C96(16) - C103(14)
   >= -2.999412e+06
 c29: - 1e+06 B0(15) - 1e+06 B7(13) + 1e+06 B19(2) - C96(16) + C103(14)
   >= -1.99931e+06
 c30: - 1e+06 B0(15) - 1e+06 B9(17) - 1e+06 B21(4) + C96(16) - C105(18)
   >= -2.999858e+06
 c31: - 1e+06 B0(15) - 1e+06 B9(17) + 1e+06 B21(4) - C96(16) + C105(18)
   >= -1.999535e+06
 c32: - 1e+06 B1(9) - 1e+06 B10(11) - 1e+06 B21(4) + C97(10) - C106(12)
   >= -2.999728e+06
 c33: - 1e+06 B1(9) - 1e+06 B10(11) + 1e+06 B21(4) - C97(10) + C106(12)
   >= -1.999783e+06
 c34: - 1e+06 B0(15) - 1e+06 B11(17) - 1e+06 B22(4) + C96(16) - C107(18)
   >= -2.999797e+06
 c35: - 1e+06 B0(15) - 1e+06 B11(17) + 1e+06 B22(4) - C96(16) + C107(18)
   >= -1.999242e+06
 c36: - 1e+06 B1(9) - 1e+06 B12(11) - 1e+06 B22(4) + C97(10) - C108(12)
   >= -2.999753e+06
 c37: - 1e+06 B1(9) - 1e+06 B12(11) + 1e+06 B22(4) - C97(10) + C108(12)
   >= -1.999767e+06
 c38: - 1e+06 B0(15) - 1e+06 B14(18) - 1e+06 B23(2) + C96(16) - C110(18)
   >= -2.99922e+06
 c39: - 1e+06 B0(15) - 1e+06 B14(18) + 1e+06 B23(2) - C96(16) + C110(18)
   >= -1.99975e+06
 c40: - 1e+06 B0(15) - 1e+06 B3(15) - 1e+06 B24(2) - C96(16) + C99(16)
   >= -2.999518e+06
 c41: - 1e+06 B0(15) - 1e+06 B3(15) + 1e+06 B24(2) + C96(16) - C99(16)
   >= -1.999764e+06
 c42: - 1e+06 B2(13) - 1e+06 B4(14) - 1e+06 B26(2) + C98(14) - C100(14)
   >= -2.999464e+06
 c43: - 1e+06 B2(13) - 1e+06 B4(14) + 1e+06 B26(2) - C98(14) + C100(14)
   >= -1.999486e+06
 c44: - 1e+06 B2(13) - 1e+06 B6(13) - 1e+06 B28(4) + C98(14) - C102(14)
   >= -2.999346e+06
 c45: - 1e+06 B2(13) - 1e+06 B6(13) + 1e+06 B28(4) - C98(14) + C102(14)
   >= -1.9998e+06
 c46: - 1e+06 B3(15) - 1e+06 B7(13) - 1e+06 B28(4) + C99(16) - C103(14)
   >= -2.99959e+06
 c47: - 1e+06 B3(15) - 1e+06 B7(13) + 1e+06 B28(4) - C99(16) + C103(14)
   >= -1.999295e+06
 c48: - 1e+06 B2(13) - 1e+06 B8(14) - 1e+06 B29(2) + C98(14) - C104(14)
   >= -2.999953e+06
 c49: - 1e+06 B2(13) - 1e+06 B8(14) + 1e+06 B29(2) - C98(14) + C104(14)
   >= -1.999778e+06
 c50: - 1e+06 B3(15) - 1e+06 B9(17) - 1e+06 B30(2) + C99(16) - C105(18)
   >= -2.99979e+06
 c51: - 1e+06 B3(15) - 1e+06 B9(17) + 1e+06 B30(2) - C99(16) + C105(18)
   >= -1.999734e+06
 c52: - 1e+06 B3(15) - 1e+06 B11(17) - 1e+06 B31(2) + C99(16) - C107(18)
   >= -2.999754e+06
 c53: - 1e+06 B3(15) - 1e+06 B11(17) + 1e+06 B31(2) - C99(16) + C107(18)
   >= -1.999715e+06
 c54: - 1e+06 B2(13) - 1e+06 B13(12) - 1e+06 B32(4) + C98(14) - C109(12)
   >= -2.999554e+06
 c55: - 1e+06 B2(13) - 1e+06 B13(12) + 1e+06 B32(4) - C98(14) + C109(12)
   >= -1.99951e+06
 c56: - 1e+06 B3(15) - 1e+06 B14(18) - 1e+06 B32(4) + C99(16) - C110(18)
   >= -2.999364e+06
 c57: - 1e+06 B3(15) - 1e+06 B14(18) + 1e+06 B32(4) - C99(16) + C110(18)
   >= -1.999726e+06
 c58: - 1e+06 B2(13) - 1e+06 B4(14) - 1e+06 B34(2) - C98(14) + C100(14)
   >= -2.999486e+06
 c59: - 1e+06 B2(13) - 1e+06 B4(14) + 1e+06 B34(2) + C98(14) - C100(14)
   >= -1.999464e+06
 c60: - 1e+06 B4(14) - 1e+06 B6(13) - 1e+06 B37(2) + C100(14) - C102(14)
   >= -2.999702e+06
 c61: - 1e+06 B4(14) - 1e+06 B6(13) + 1e+06 B37(2) - C100(14) + C102(14)
   >= -1.999929e+06
 c62: - 1e+06 B4(14) - 1e+06 B8(14) - 1e+06 B38(2) + C100(14) - C104(14)
   >= -2.999798e+06
 c63: - 1e+06 B4(14) - 1e+06 B8(14) + 1e+06 B38(2) - C100(14) + C104(14)
   >= -1.999128e+06
 c64: - 1e+06 B4(14) - 1e+06 B13(12) - 1e+06 B41(2) + C100(14) - C109(12)
   >= -2.999585e+06
 c65: - 1e+06 B4(14) - 1e+06 B13(12) + 1e+06 B41(2) - C100(14) + C109(12)
   >= -1.999887e+06
 c66: - 1e+06 B5(9) - 1e+06 B10(11) - 1e+06 B48(2) + C101(10) - C106(12)
   >= -2.999716e+06
 c67: - 1e+06 B5(9) - 1e+06 B10(11) + 1e+06 B48(2) - C101(10) + C106(12)
   >= -1.99945e+06
 c68: - 1e+06 B5(9) - 1e+06 B12(11) - 1e+06 B49(2) + C101(10) - C108(12)
   >= -2.999654e+06
 c69: - 1e+06 B5(9) - 1e+06 B12(11) + 1e+06 B49(2) - C101(10) + C108(12)
   >= -1.99983e+06
 c70: - 1e+06 B6(13) - 1e+06 B8(14) - 1e+06 B56(2) + C102(14) - C104(14)
   >= -2.999574e+06
 c71: - 1e+06 B6(13) - 1e+06 B8(14) + 1e+06 B56(2) - C102(14) + C104(14)
   >= -1.999791e+06
 c72: - 1e+06 B7(13) - 1e+06 B9(17) - 1e+06 B57(2) + C103(14) - C105(18)
   >= -2.999852e+06
 c73: - 1e+06 B7(13) - 1e+06 B9(17) + 1e+06 B57(2) - C103(14) + C105(18)
   >= -1.9992e+06
 c74: - 1e+06 B7(13) - 1e+06 B11(17) - 1e+06 B58(2) + C103(14) - C107(18)
   >= -2.999566e+06
 c75: - 1e+06 B7(13) - 1e+06 B11(17) + 1e+06 B58(2) - C103(14) + C107(18)
   >= -1.999552e+06
 c76: - 1e+06 B6(13) - 1e+06 B13(12) - 1e+06 B59(4) + C102(14) - C109(12)
   >= -2.999286e+06
 c77: - 1e+06 B6(13) - 1e+06 B13(12) + 1e+06 B59(4) - C102(14) + C109(12)
   >= -1.99959e+06
 c78: - 1e+06 B7(13) - 1e+06 B14(18) - 1e+06 B59(4) + C103(14) - C110(18)
   >= -2.999529e+06
 c79: - 1e+06 B7(13) - 1e+06 B14(18) + 1e+06 B59(4) - C103(14) + C110(18)
   >= -1.998945e+06
 c80: - 1e+06 B6(13) - 1e+06 B8(14) - 1e+06 B64(2) - C102(14) + C104(14)
   >= -2.999791e+06
 c81: - 1e+06 B6(13) - 1e+06 B8(14) + 1e+06 B64(2) + C102(14) - C104(14)
   >= -1.999574e+06
 c82: - 1e+06 B8(14) - 1e+06 B13(12) - 1e+06 B68(2) + C104(14) - C109(12)
   >= -2.999815e+06
 c83: - 1e+06 B8(14) - 1e+06 B13(12) + 1e+06 B68(2) - C104(14) + C109(12)
   >= -1.999522e+06
 c84: - 1e+06 B9(17) - 1e+06 B11(17) - 1e+06 B76(4) + C105(18) - C107(18)
   >= -2.99962e+06
 c85: - 1e+06 B9(17) - 1e+06 B11(17) + 1e+06 B76(4) - C105(18) + C107(18)
   >= -1.999771e+06
 c86: - 1e+06 B10(11) - 1e+06 B12(11) - 1e+06 B76(4) + C106(12) - C108(12)
   >= -2.999748e+06
 c87: - 1e+06 B10(11) - 1e+06 B12(11) + 1e+06 B76(4) - C106(12) + C108(12)
   >= -1.999756e+06
 c88: - 1e+06 B9(17) - 1e+06 B14(18) - 1e+06 B77(2) + C105(18) - C110(18)
   >= -2.999536e+06
 c89: - 1e+06 B9(17) - 1e+06 B14(18) + 1e+06 B77(2) - C105(18) + C110(18)
   >= -1.999604e+06
 c90: - 1e+06 B9(17) - 1e+06 B11(17) - 1e+06 B84(4) - C105(18) + C107(18)
   >= -2.999771e+06
 c91: - 1e+06 B9(17) - 1e+06 B11(17) + 1e+06 B84(4) + C105(18) - C107(18)
   >= -1.99962e+06
 c92: - 1e+06 B10(11) - 1e+06 B12(11) - 1e+06 B84(4) - C106(12) + C108(12)
   >= -2.999756e+06
 c93: - 1e+06 B10(11) - 1e+06 B12(11) + 1e+06 B84(4) + C106(12) - C108(12)
   >= -1.999748e+06
 c94: - 1e+06 B11(17) - 1e+06 B14(18) - 1e+06 B86(2) + C107(18) - C110(18)
   >= -2.99937e+06
 c95: - 1e+06 B11(17) - 1e+06 B14(18) + 1e+06 B86(2) - C107(18) + C110(18)
   >= -1.999744e+06
 c96: - 1e+06 B9(17) - 1e+06 B14(18) - 1e+06 B93(2) - C105(18) + C110(18)
   >= -2.999604e+06
 c97: - 1e+06 B9(17) - 1e+06 B14(18) + 1e+06 B93(2) + C105(18) - C110(18)
   >= -1.999536e+06
 c98: - 1e+06 B11(17) - 1e+06 B14(18) - 1e+06 B94(2) - C107(18) + C110(18)
   >= -2.999744e+06
 c99: - 1e+06 B11(17) - 1e+06 B14(18) + 1e+06 B94(2) + C107(18) - C110(18)
   >= -1.99937e+06
 c100: C96(16) >= 0
 c101: C97(10) >= 0
 c102: C98(14) >= 0
 c103: C99(16) >= 0
 c104: C100(14) >= 0
 c105: - 480 B4(14) + C100(14) >= 0
 c106: C101(10) >= 0
 c107: C102(14) >= 0
 c108: C103(14) >= 0
 c109: C104(14) >= 0
 c110: - 480 B8(14) + C104(14) >= 0
 c111: C105(18) >= 0
 c112: C106(12) >= 0
 c113: C107(18) >= 0
 c114: C108(12) >= 0
 c115: C109(12) >= 0
 c116: - 480 B13(12) + C109(12) >= 0
 c117: C110(18) >= 0
 c118: - 480 B14(18) + C110(18) >= 0
 c119: - 40 B2(13) - 130 B3(15) + C96(16) + C97(10) - C98(14) - C99(16)
   >= 0
 c120: - 17 B4(14) + C98(14) + C99(16) - C100(14) >= 0
 c121: - 150 B6(13) - 160 B7(13) + C101(10) - C102(14) - C103(14) >= 0
 c122: - 30 B8(14) + C102(14) + C103(14) - C104(14) >= 0
 c123: - 170 B11(17) - 180 B12(11) + C105(18) + C106(12) - C107(18)
   - C108(12) >= 0
 c124: - 50 B13(12) - 60 B14(18) + C107(18) + C108(12) - C109(12)
   - C110(18) >= 0
 c125: - 50 B0(15) - 60 B1(9) - 70 B5(9) - 90 B9(17) - 100 B10(11)
   - C96(16) - C97(10) - C101(10) - C105(18) - C106(12) + I111(1) >= 0
Bounds
Binaries
 B0(15) B1(9) B2(13) B3(15) B4(14) B5(9) B6(13) B7(13) B8(14) B9(17)
 B10(11) B11(17) B12(11) B13(12) B14(18) B15(0) B16(2) B17(0) B18(2) B19(2)
 B20(0) B21(4) B22(4) B23(2) B24(2) B25(0) B26(2) B27(0) B28(4) B29(2)
 B30(2) B31(2) B32(4) B33(0) B34(2) B35(0) B36(0) B37(2) B38(2) B39(0)
 B40(0) B41(2) B42(0) B43(0) B44(0) B45(0) B46(0) B47(0) B48(2) B49(2)
 B50(0) B51(0) B52(0) B53(0) B54(0) B55(0) B56(2) B57(2) B58(2) B59(4)
 B60(0) B61(0) B62(0) B63(0) B64(2) B65(0) B66(0) B67(0) B68(2) B69(0)
 B70(0) B71(0) B72(0) B73(0) B74(0) B75(0) B76(4) B77(2) B78(0) B79(0)
 B80(0) B81(0) B82(0) B83(0) B84(4) B85(0) B86(2) B87(0) B88(0) B89(0)
 B90(0) B91(0) B92(0) B93(2) B94(2) B95(0)
Generals
 I111(1)
End
